C 
 1.0000000000000000
    10.0000000000000000    0.0000000000000000    0.0000000000000000
     0.0000000000000000   10.0000000000000000    0.0000000000000000
     0.0000000000000000    0.0000000000000000   10.0000000000000000
 60
Cartesian
  6.4261267193249836  8.0339870112656477  6.1755262665740993
  6.4261267193249836  8.0339870112656477  3.8244737334259078
  6.4261267193249836  1.9660129887343558  6.1755262665740993
  6.4261267193249836  1.9660129887343558  3.8244737334259078
  3.5738732806750146  8.0339870112656477  6.1755262665740993
  3.5738732806750146  8.0339870112656477  3.8244737334259078
  3.5738732806750146  1.9660129887343558  6.1755262665740993
  3.5738732806750146  1.9660129887343558  3.8244737334259078
  8.0339870112656477  6.1755262665740958  6.4261267193249871
  8.0339870112656477  6.1755262665740958  3.5738732806750129
  8.0339870112656477  3.8244737334259078  6.4261267193249871
  8.0339870112656477  3.8244737334259078  3.5738732806750129
  1.9660129887343558  6.1755262665740958  6.4261267193249871
  1.9660129887343558  6.1755262665740958  3.5738732806750129
  1.9660129887343558  3.8244737334259078  6.4261267193249871
  1.9660129887343558  3.8244737334259078  3.5738732806750129
  6.1755262665740958  6.4261267193249836  8.0339870112656477
  6.1755262665740958  6.4261267193249836  1.9660129887343558
  6.1755262665740958  3.5738732806750146  8.0339870112656477
  6.1755262665740958  3.5738732806750146  1.9660129887343558
  3.8244737334259078  6.4261267193249836  8.0339870112656477
  3.8244737334259078  6.4261267193249836  1.9660129887343558
  3.8244737334259078  3.5738732806750146  8.0339870112656477
  3.8244737334259078  3.5738732806750146  1.9660129887343558
  5.7265277946484847  7.6016301540033560  7.3074945030109397
  5.7265277946484847  7.6016301540033560  2.6925054969890674
  5.7265277946484847  2.3983698459966387  7.3074945030109397
  5.7265277946484847  2.3983698459966387  2.6925054969890674
  4.2734722053515224  7.6016301540033560  7.3074945030109397
  4.2734722053515224  7.6016301540033560  2.6925054969890674
  4.2734722053515224  2.3983698459966387  7.3074945030109397
  4.2734722053515224  2.3983698459966387  2.6925054969890674
  7.6016301540033560  7.3074945030109397  5.7265277946484865
  7.6016301540033560  7.3074945030109397  4.2734722053515206
  7.6016301540033560  2.6925054969890656  5.7265277946484865
  7.6016301540033560  2.6925054969890656  4.2734722053515206
  2.3983698459966387  7.3074945030109397  5.7265277946484865
  2.3983698459966387  7.3074945030109397  4.2734722053515206
  2.3983698459966387  2.6925054969890656  5.7265277946484865
  2.3983698459966387  2.6925054969890656  4.2734722053515206
  7.3074945030109397  5.7265277946484847  7.6016301540033560
  7.3074945030109397  5.7265277946484847  2.3983698459966369
  7.3074945030109397  4.2734722053515224  7.6016301540033560
  7.3074945030109397  4.2734722053515224  2.3983698459966369
  2.6925054969890656  5.7265277946484847  7.6016301540033560
  2.6925054969890656  5.7265277946484847  2.3983698459966369
  2.6925054969890656  4.2734722053515224  7.6016301540033560
  2.6925054969890656  4.2734722053515224  2.3983698459966369
  5.0000000000000000  5.6995849472741380  8.4829747548521972
  5.0000000000000000  5.6995849472741380  1.5170252451478028
  5.0000000000000000  4.3004150527258620  8.4829747548521972
  5.0000000000000000  4.3004150527258620  1.5170252451478028
  5.6995849472741380  8.4829747548521972  5.0000000000000036
  5.6995849472741380  1.5170252451478028  5.0000000000000036
  4.3004150527258620  8.4829747548521972  5.0000000000000036
  4.3004150527258620  1.5170252451478028  5.0000000000000036
  8.4829747548521972  5.0000000000000000  5.6995849472741362
  8.4829747548521972  5.0000000000000000  4.3004150527258638
  1.5170252451478028  5.0000000000000000  5.6995849472741362
  1.5170252451478028  5.0000000000000000  4.3004150527258638
